2	16	3	4	4	9	14	9	2	10	20	8	8	2	10	10	17	6	2	20	20	11	16	20	6	12	9	2	19	12	8	14	4	4	6	11	2	5	7	7	1	6	2	18	10	18	19	8	6	1
17	6	17	16	10	19	5	7	11	13	1	19	5	15	10	16	6	10	18	2	6	16	7	4	10	7	18	3	12	12	15	17	14	12	11	12	6	3	20	6	1	20	9	2	5	19	10	20	18	16
16	5	12	5	13	9	17	11	7	3	5	19	1	7	17	13	20	10	5	8	15	16	7	1	13	13	13	20	4	3	17	18	2	2	1	9	6	17	15	19	11	14	11	6	14	7	19	13	7	19
16	7	8	18	2	6	17	11	5	1	4	5	12	3	9	19	3	14	3	17	8	5	2	10	15	2	2	11	2	7	15	2	17	15	8	16	1	16	7	18	8	12	10	9	14	18	18	1	4	13
